38600 40506 
38073 40693 
38464 40608 
39684 40067 
40123 39762 
38973 40457 
38633 40478 
37580 40785 
38106 40665 
37909 40704 
37770 40724 
37416 40796 
38399 40634 
37132 40840 
38223 40644 
37807 40711 
39311 40260 
